VASP cell
1.0
      15.00000000       0.00000000       0.00000000
       0.00000000      15.00000000       0.00000000
       0.00000000       0.00000000      15.00000000
  C  F
  3  8
Cartesian
 -2.67045456    0.47520660    0.00000000
 -2.15711234    1.20116288    1.25740497
 -0.82285532    0.57454085    1.70316618
  0.08477245    0.69552587    0.71116091
 -2.85623447    1.37118360   -0.99257798
 -3.84133470   -0.13580621    0.27964807
 -1.96897988    2.50826869    0.97708270
 -3.06487813    1.07975854    2.24923270
 -0.37261116    1.21123915    2.80516231
 -1.01108688   -0.73245380    1.98393986
 -1.76380195   -0.44614825   -0.3893408