VASP cell
1.0
      15.00000000       0.00000000       0.00000000
       0.00000000      15.00000000       0.00000000
       0.00000000       0.00000000      15.00000000
  C  H   O
  4  10  1
Cartesian
-2.67444385    1.99388551    0.08622856
-1.61051086    2.07300283    1.19680816
-1.15958260    2.97703535    3.84449676
-0.88079103    1.94525165    2.73575979
-2.86859944    0.96834384   -0.14928768
-2.31696721    2.49882367   -0.78678227
-3.57699117    2.45951746    0.42311906
-1.41494455    3.09858660    1.43096994
-0.70858218    1.60565856    0.86063263
-1.17445794    2.48465531    4.79436023
-0.39086029    3.72131392    3.84056884
-2.10713534    3.44202519    3.66891706
-0.10985974    2.60860928    2.40331189
-0.58951906    0.93413294    2.54159598
-2.08931911    1.40041043    2.36439633